10J3M/DAT/10J3MNTL-8.dat
10 3
32.0281 32.0281
32.8154 32.8154
16.3204 16.3204
28.569 28.569
21.4019 21.4019
39.026 39.026
29.8477 29.8477
23.5038 23.5038
28.6369 28.6369
30.0266 30.0266
70.5439