10J3M/SOL/10J3MNTL-8.sol
solution status: optimal solution found
objective value:                              70.5439
x#1#3                                               1 	(obj:0)
x#2#3                                               1 	(obj:0)
x#3#1                                               1 	(obj:0)
x#4#1                                               1 	(obj:0)
x#5#1                                               1 	(obj:0)
x#6#3                               0.146066724747604 	(obj:0)
x#7#1                               0.142476639741086 	(obj:0)
x#7#2                               0.616570120980846 	(obj:0)
x#8#2                                               1 	(obj:0)
x#9#2                                               1 	(obj:0)
z                                             70.5439 	(obj:1)
